NAME : LPS-n14-m289
COMMENT : (Lartu-Peter-Santi Plot, instance 4689 out of 39200. 14 customers.)
TYPE : CVRP
DIMENSION : 14
EDGE_WEIGHT_TYPE : EUC_2D
CAPACITY : 103
NODE_COORD_SECTION
 1 22 31
 2 96 59
 3 34 97
 4 36 31
 5 59 41
 6 5 37
 7 39 55
 8 9 72
 9 88 26
 10 52 95
 11 60 91
 12 49 14
 13 60 56
 14 99 97
DEMAND_SECTION
1 0
2 38
3 57
4 51
5 23
6 31
7 73
8 18
9 27
10 85
11 38
12 75
13 21
14 97
DEPOT_SECTION
 1
 -1
EOF
